presolving:
(round 1, fast)       150 del vars, 182 del conss, 0 add conss, 50 chg bounds, 100 chg sides, 0 chg coeffs, 0 upgd conss, 0 impls, 15300 clqs
   (0.1s) running MILP presolver
   (0.2s) MILP presolver found nothing
(round 2, exhaustive) 150 del vars, 182 del conss, 0 add conss, 50 chg bounds, 100 chg sides, 0 chg coeffs, 15318 upgd conss, 0 impls, 15300 clqs
   (0.6s) probing: 51/15050 (0.3%) - 0 fixings, 0 aggregations, 0 implications, 0 bound changes
   (0.6s) probing aborted: 50/50 successive totally useless probings
   (0.7s) symmetry computation started: requiring (bin +, int -, cont +), (fixed: bin -, int +, cont -)
   (0.7s) no symmetry present
presolving (3 rounds: 3 fast, 2 medium, 2 exhaustive):
 150 deleted vars, 182 deleted constraints, 0 added constraints, 50 tightened bounds, 0 added holes, 100 changed sides, 17 changed coefficients
 0 implications, 15300 cliques
presolved problem has 15050 variables (15050 bin, 0 int, 0 impl, 0 cont) and 15318 constraints
     18 constraints of type <knapsack>
  15300 constraints of type <setppc>
Presolving Time: 0.64

 time | node  | left  |LP iter|LP it/n|mem/heur|mdpt |vars |cons |rows |cuts |sepa|confs|strbr|  dualbound   | primalbound  |  gap   | compl. 
p 0.8s|     1 |     0 |     0 |     - |  clique|   0 |  15k|  15k|  15k|   0 |  0 |   0 |   0 | 0.000000e+00 |-1.673987e+05 |    Inf | unknown
  2.3s|     1 |     0 |  4110 |     - |   174M |   0 |  15k|  15k|  15k|   0 |  0 |   1 |   0 |-1.116196e+05 |-1.673987e+05 |  49.97%| unknown
r 2.4s|     1 |     0 |  4110 |     - |rounding|   0 |  15k|  15k|  15k|   0 |  0 |   1 |   0 |-1.116196e+05 |-1.296679e+05 |  16.17%| unknown
i 2.4s|     1 |     0 |  4110 |     - |  oneopt|   0 |  15k|  15k|  15k|   0 |  0 |   1 |   0 |-1.116196e+05 |-1.266529e+05 |  13.47%| unknown
  5.5s|     1 |     0 |  4184 |     - |   183M |   0 |  15k|  15k|  15k|   2 |  1 |   1 |   0 |-1.116345e+05 |-1.266529e+05 |  13.45%| unknown
  7.8s|     1 |     0 |  4352 |     - |   189M |   0 |  15k|  15k|  15k|   5 |  2 |   1 |   0 |-1.116478e+05 |-1.266529e+05 |  13.44%| unknown
 11.4s|     1 |     0 |  4586 |     - |   200M |   0 |  15k|  15k|  15k|   8 |  3 |   1 |   0 |-1.116645e+05 |-1.266529e+05 |  13.42%| unknown
 14.1s|     1 |     0 |  4715 |     - |   207M |   0 |  15k|  15k|  15k|  12 |  4 |   1 |   0 |-1.116723e+05 |-1.266529e+05 |  13.41%| unknown
 17.6s|     1 |     0 |  4971 |     - |   214M |   0 |  15k|  15k|  15k|  14 |  5 |   1 |   0 |-1.116838e+05 |-1.266529e+05 |  13.40%| unknown
 19.0s|     1 |     0 |  5041 |     - |   216M |   0 |  15k|  15k|  15k|  15 |  6 |   1 |   0 |-1.116873e+05 |-1.266529e+05 |  13.40%| unknown
 22.9s|     1 |     0 |  5332 |     - |   225M |   0 |  15k|  15k|  15k|  17 |  7 |   1 |   0 |-1.116970e+05 |-1.266529e+05 |  13.39%| unknown
 26.3s|     1 |     0 |  5433 |     - |   232M |   0 |  15k|  15k|  15k|  19 |  8 |   1 |   0 |-1.117008e+05 |-1.266529e+05 |  13.39%| unknown
 28.7s|     1 |     0 |  5834 |     - |   237M |   0 |  15k|  15k|  15k|  22 |  9 |   1 |   0 |-1.117219e+05 |-1.266529e+05 |  13.36%| unknown
 30.1s|     1 |     0 |  5952 |     - |   239M |   0 |  15k|  15k|  15k|  26 | 10 |   1 |   0 |-1.117263e+05 |-1.266529e+05 |  13.36%| unknown
 30.7s|     1 |     0 |  6021 |     - |   241M |   0 |  15k|  15k|  15k|  27 | 11 |   1 |   0 |-1.117292e+05 |-1.266529e+05 |  13.36%| unknown
 time | node  | left  |LP iter|LP it/n|mem/heur|mdpt |vars |cons |rows |cuts |sepa|confs|strbr|  dualbound   | primalbound  |  gap   | compl. 
 31.2s|     1 |     0 |  6082 |     - |   242M |   0 |  15k|  15k|  15k|  29 | 12 |   1 |   0 |-1.117328e+05 |-1.266529e+05 |  13.35%| unknown
 31.9s|     1 |     0 |  6187 |     - |   244M |   0 |  15k|  15k|  15k|  30 | 13 |   1 |   0 |-1.117343e+05 |-1.266529e+05 |  13.35%| unknown
 32.5s|     1 |     0 |  6388 |     - |   246M |   0 |  15k|  15k|  15k|  31 | 14 |   1 |   0 |-1.117432e+05 |-1.266529e+05 |  13.34%| unknown
 33.0s|     1 |     0 |  6418 |     - |   247M |   0 |  15k|  15k|  15k|  32 | 15 |   1 |   0 |-1.117457e+05 |-1.266529e+05 |  13.34%| unknown
 33.7s|     1 |     0 |  6600 |     - |   249M |   0 |  15k|  15k|  15k|  34 | 16 |   1 |   0 |-1.117532e+05 |-1.266529e+05 |  13.33%| unknown
 34.2s|     1 |     0 |  6756 |     - |   250M |   0 |  15k|  15k|  15k|  36 | 17 |   1 |   0 |-1.117592e+05 |-1.266529e+05 |  13.33%| unknown
 34.8s|     1 |     0 |  6767 |     - |   250M |   0 |  15k|  15k|  15k|  37 | 18 |   1 |   0 |-1.117598e+05 |-1.266529e+05 |  13.33%| unknown
 35.3s|     1 |     0 |  6855 |     - |   252M |   0 |  15k|  15k|  15k|  38 | 19 |   1 |   0 |-1.117643e+05 |-1.266529e+05 |  13.32%| unknown
d36.3s|     1 |     0 |  9198 |     - |farkasdi|   0 |  15k|  15k|  15k|   0 | 19 |   1 |   0 |-1.117643e+05 |-1.123950e+05 |   0.56%| unknown
 43.7s|     1 |     0 | 20022 |     - |   255M |   0 |  15k|  15k|  15k|  38 | 19 |  25 |   0 |-1.117643e+05 |-1.123950e+05 |   0.56%| unknown
 43.8s|     1 |     0 | 20022 |     - |   256M |   0 |  15k|  15k|  12k|  38 | 19 |  25 |   0 |-1.117643e+05 |-1.123950e+05 |   0.56%| unknown
 44.2s|     1 |     0 | 20038 |     - |   257M |   0 |  15k|  12k|  12k|  39 | 20 |  25 |   0 |-1.117667e+05 |-1.123950e+05 |   0.56%| unknown
 44.3s|     1 |     0 | 20038 |     - |   257M |   0 |  15k|  12k|  12k|  39 | 20 |  25 |   0 |-1.117667e+05 |-1.123950e+05 |   0.56%| unknown
 44.4s|     1 |     0 | 20059 |     - |   257M |   0 |  15k|  12k|  12k|  41 | 21 |  25 |   0 |-1.117679e+05 |-1.123950e+05 |   0.56%| unknown
 44.5s|     1 |     0 | 20059 |     - |   257M |   0 |  15k|  12k|  12k|  41 | 21 |  25 |   0 |-1.117679e+05 |-1.123950e+05 |   0.56%| unknown
(run 1, node 1) restarting after 2458 global fixings of integer variables

(restart) converted 39 cuts from the global cut pool into linear constraints

presolving:
(round 1, fast)       2458 del vars, 0 del conss, 0 add conss, 0 chg bounds, 2 chg sides, 9 chg coeffs, 0 upgd conss, 0 impls, 12844 clqs
   (44.6s) running MILP presolver
   (44.6s) MILP presolver found nothing
(round 2, medium)     2458 del vars, 113 del conss, 113 add conss, 0 chg bounds, 115 chg sides, 235 chg coeffs, 0 upgd conss, 0 impls, 12844 clqs
(round 3, exhaustive) 2458 del vars, 115 del conss, 113 add conss, 0 chg bounds, 115 chg sides, 248 chg coeffs, 36 upgd conss, 0 impls, 12844 clqs
presolving (4 rounds: 4 fast, 3 medium, 2 exhaustive):
 2458 deleted vars, 115 deleted constraints, 113 added constraints, 0 tightened bounds, 0 added holes, 115 changed sides, 248 changed coefficients
 0 implications, 12844 cliques
presolved problem has 12592 variables (12592 bin, 0 int, 0 impl, 0 cont) and 12921 constraints
     49 constraints of type <knapsack>
  12844 constraints of type <setppc>
      3 constraints of type <linear>
     25 constraints of type <logicor>
Presolving Time: 0.87
transformed 5/6 original solutions to the transformed problem space

 time | node  | left  |LP iter|LP it/n|mem/heur|mdpt |vars |cons |rows |cuts |sepa|confs|strbr|  dualbound   | primalbound  |  gap   | compl. 
 48.9s|     1 |     0 | 30281 |     - |   245M |   0 |  12k|  12k|  12k|   0 |  0 |  25 |   0 |-1.117679e+05 |-1.123950e+05 |   0.56%| unknown
 49.1s|     1 |     0 | 30281 |     - |   245M |   0 |  12k|  12k|  12k|   0 |  0 |  25 |   0 |-1.117679e+05 |-1.123950e+05 |   0.56%| unknown
 50.9s|     1 |     0 | 30481 |     - |   248M |   0 |  12k|  12k|  12k|   3 |  1 |  25 |   0 |-1.117740e+05 |-1.123950e+05 |   0.56%| unknown
 51.0s|     1 |     0 | 30481 |     - |   249M |   0 |  12k|  12k|  12k|   3 |  1 |  25 |   0 |-1.117740e+05 |-1.123950e+05 |   0.56%| unknown
 52.2s|     1 |     0 | 30532 |     - |   250M |   0 |  12k|  12k|  12k|   4 |  2 |  25 |   0 |-1.117752e+05 |-1.123950e+05 |   0.55%| unknown
 52.3s|     1 |     0 | 30532 |     - |   250M |   0 |  12k|  12k|  12k|   4 |  2 |  25 |   0 |-1.117752e+05 |-1.123950e+05 |   0.55%| unknown
 54.6s|     1 |     0 | 30765 |     - |   252M |   0 |  12k|  12k|  12k|   8 |  3 |  25 |   0 |-1.117839e+05 |-1.123950e+05 |   0.55%| unknown
 54.7s|     1 |     0 | 30765 |     - |   252M |   0 |  12k|  12k|  12k|   8 |  3 |  25 |   0 |-1.117839e+05 |-1.123950e+05 |   0.55%| unknown
 56.2s|     1 |     0 | 30800 |     - |   253M |   0 |  12k|  12k|  12k|   9 |  4 |  25 |   0 |-1.117850e+05 |-1.123950e+05 |   0.55%| unknown
 56.3s|     1 |     0 | 30800 |     - |   253M |   0 |  12k|  12k|  12k|   9 |  4 |  25 |   0 |-1.117850e+05 |-1.123950e+05 |   0.55%| unknown
 57.7s|     1 |     0 | 30915 |     - |   254M |   0 |  12k|  12k|  12k|  11 |  5 |  25 |   0 |-1.117869e+05 |-1.123950e+05 |   0.54%| unknown
 57.8s|     1 |     0 | 30915 |     - |   255M |   0 |  12k|  12k|  12k|  11 |  5 |  25 |   0 |-1.117869e+05 |-1.123950e+05 |   0.54%| unknown
 59.2s|     1 |     0 | 30980 |     - |   256M |   0 |  12k|  12k|  12k|  12 |  6 |  25 |   0 |-1.117876e+05 |-1.123950e+05 |   0.54%| unknown
 59.3s|     1 |     0 | 30980 |     - |   256M |   0 |  12k|  12k|  12k|  12 |  6 |  25 |   0 |-1.117876e+05 |-1.123950e+05 |   0.54%| unknown
 60.8s|     1 |     0 | 31054 |     - |   257M |   0 |  12k|  12k|  12k|  14 |  7 |  25 |   0 |-1.117894e+05 |-1.123950e+05 |   0.54%| unknown
 time | node  | left  |LP iter|LP it/n|mem/heur|mdpt |vars |cons |rows |cuts |sepa|confs|strbr|  dualbound   | primalbound  |  gap   | compl. 
 60.8s|     1 |     0 | 31054 |     - |   258M |   0 |  12k|  12k|  12k|  14 |  7 |  25 |   0 |-1.117894e+05 |-1.123950e+05 |   0.54%| unknown
 62.4s|     1 |     0 | 31299 |     - |   259M |   0 |  12k|  12k|  12k|  16 |  8 |  25 |   0 |-1.117945e+05 |-1.123950e+05 |   0.54%| unknown
 62.5s|     1 |     0 | 31299 |     - |   259M |   0 |  12k|  12k|  12k|  16 |  8 |  25 |   0 |-1.117945e+05 |-1.123950e+05 |   0.54%| unknown
 64.0s|     1 |     0 | 31390 |     - |   260M |   0 |  12k|  12k|  12k|  17 |  9 |  25 |   0 |-1.117955e+05 |-1.123950e+05 |   0.54%| unknown
 64.1s|     1 |     0 | 31390 |     - |   260M |   0 |  12k|  12k|  12k|  17 |  9 |  25 |   0 |-1.117955e+05 |-1.123950e+05 |   0.54%| unknown
 67.3s|     1 |     0 | 31578 |     - |   264M |   0 |  12k|  12k|  12k|  19 | 10 |  25 |   0 |-1.117976e+05 |-1.123950e+05 |   0.53%| unknown
 67.4s|     1 |     0 | 31578 |     - |   264M |   0 |  12k|  12k|  12k|  19 | 10 |  25 |   0 |-1.117976e+05 |-1.123950e+05 |   0.53%| unknown
 68.0s|     1 |     0 | 31712 |     - |   265M |   0 |  12k|  12k|  12k|  21 | 11 |  25 |   0 |-1.118010e+05 |-1.123950e+05 |   0.53%| unknown
 68.0s|     1 |     0 | 31712 |     - |   265M |   0 |  12k|  12k|  12k|  21 | 11 |  25 |   0 |-1.118010e+05 |-1.123950e+05 |   0.53%| unknown
 84.8s|     1 |     2 | 45698 |     - |   265M |   0 |  12k|  12k|  12k|  21 | 11 |  59 |  20 |-1.118654e+05 |-1.123950e+05 |   0.47%| unknown

SCIP Status        : problem is solved [optimal solution found]
Solving Time (sec) : 115.37
Solving Nodes      : 13 (total of 14 nodes in 2 runs)
Primal Bound       : -1.12395024213058e+05 (7 solutions)
Dual Bound         : -1.12395024213058e+05
Gap                : 0.00 %
Solve Status: optimal
Solve Time: 115.38 seconds
Objective Value: -112395.02
